4
8
20
1 1.3 1.55 1.75 2.1
16 5 6 11 9 20 44 36 27 46 37 17 13 22 40 6 42 20 33 30 48 18 25 34 46 40 29 41 29 41 32 41 44 44 34 34 19 21 35 33 33 15 11 22 42 33 31 36 35 36 30 44 7 42 12 18 8 23 12 48 48 15 27 46 12 38 12 13 35 12 33 30 10 20 11 48 44 7 9 17 7 35 20 18 27 48 31 28 43 7 48 31 32 13 34 44 30 21 12 25 38 47 7 45 15 22 6 24 19 8 40 21 45 46 33 9 27 17 39 33 16 9 24 33 39 47 7 23 36 10 49 29 21 34 13 27 14 29 21 20 25 16 44 23 49 10 14 13 27 21 15 33 41 13 35 30 40 39 5 41 